N = 390;
M = 484;
Edge_Start = [1, 1, 2, 3, 3, 4, 5, 5, 6, 7, 7, 8, 9, 9, 10, 11, 11, 12, 13, 13, 14, 15, 15, 16, 17, 17, 18, 19, 20, 21, 22, 23, 23, 24, 25, 25, 26, 27, 29, 29, 30, 31, 32, 33, 33, 34, 35, 35, 36, 37, 37, 39, 39, 40, 41, 41, 43, 44, 45, 45, 47, 48, 49, 49, 51, 51, 53, 54, 55, 56, 56, 57, 58, 58, 59, 60, 60, 61, 62, 62, 63, 64, 64, 65, 66, 66, 67, 68, 68, 69, 70, 70, 71, 72, 72, 73, 74, 75, 76, 76, 77, 78, 78, 79, 80, 80, 81, 82, 82, 84, 85, 86, 87, 87, 88, 89, 89, 90, 91, 91, 92, 93, 95, 95, 96, 97, 97, 99, 99, 100, 102, 103, 104, 105, 105, 106, 107, 107, 108, 109, 109, 110, 111, 112, 112, 113, 114, 114, 115, 117, 118, 118, 119, 120, 121, 122, 122, 124, 126, 127, 128, 128, 129, 130, 131, 132, 132, 134, 134, 135, 136, 136, 137, 138, 138, 140, 141, 141, 142, 143, 143, 144, 145, 145, 146, 147, 147, 149, 149, 150, 151, 151, 152, 153, 153, 155, 156, 157, 158, 159, 160, 161, 161, 163, 163, 164, 165, 165, 166, 167, 168, 168, 169, 170, 171, 172, 172, 173, 174, 175, 176, 176, 177, 178, 178, 179, 180, 181, 182, 182, 183, 184, 185, 186, 186, 187, 188, 188, 189, 190, 190, 191, 192, 192, 193, 194, 196, 197, 197, 198, 199, 200, 201, 201, 202, 203, 203, 204, 205, 205, 206, 207, 207, 208, 209, 210, 211, 211, 212, 213, 213, 214, 215, 217, 217, 218, 219, 219, 220, 221, 221, 222, 223, 224, 224, 225, 226, 226, 227, 228, 228, 230, 231, 232, 232, 234, 234, 235, 236, 236, 237, 238, 238, 239, 240, 240, 241, 242, 242, 243, 244, 244, 245, 246, 246, 247, 248, 248, 249, 250, 250, 252, 253, 254, 255, 256, 257, 257, 258, 259, 259, 260, 261, 261, 262, 263, 263, 264, 265, 267, 268, 269, 269, 270, 271, 271, 272, 273, 273, 274, 275, 275, 276, 277, 277, 278, 279, 280, 280, 282, 282, 283, 284, 284, 285, 286, 286, 287, 288, 288, 289, 290, 290, 291, 292, 293, 294, 294, 296, 296, 297, 298, 298, 300, 300, 301, 302, 303, 304, 304, 305, 306, 306, 308, 309, 309, 311, 312, 313, 313, 314, 315, 316, 317, 317, 318, 319, 319, 320, 321, 321, 322, 324, 325, 325, 326, 327, 328, 329, 329, 331, 331, 332, 333, 333, 334, 335, 336, 336, 338, 338, 339, 340, 340, 341, 342, 342, 343, 344, 345, 346, 347, 348, 348, 349, 350, 350, 351, 352, 354, 354, 355, 356, 356, 357, 358, 358, 359, 360, 360, 361, 362, 362, 364, 366, 367, 368, 371, 372, 373, 374, 375, 376, 377, 378, 379, 381, 382, 383, 384, 385, 387, 388, 389];
Edge_End = [2, 28, 3, 4, 30, 5, 6, 32, 7, 8, 34, 9, 10, 36, 11, 12, 38, 13, 14, 40, 15, 16, 42, 17, 18, 44, 19, 20, 21, 48, 23, 24, 50, 25, 26, 52, 27, 54, 30, 57, 31, 59, 33, 34, 61, 35, 36, 63, 37, 38, 65, 40, 67, 41, 42, 69, 71, 45, 46, 73, 48, 49, 50, 77, 52, 79, 81, 55, 83, 57, 84, 58, 59, 86, 60, 61, 88, 62, 63, 90, 64, 65, 92, 66, 67, 94, 68, 69, 96, 70, 71, 98, 72, 73, 100, 74, 75, 76, 77, 104, 78, 79, 106, 80, 81, 108, 82, 83, 110, 85, 113, 87, 88, 115, 89, 90, 117, 91, 92, 119, 93, 94, 96, 123, 97, 98, 125, 100, 127, 101, 103, 104, 105, 106, 133, 107, 108, 135, 109, 110, 137, 111, 139, 113, 140, 114, 115, 142, 116, 118, 119, 146, 120, 121, 122, 123, 150, 152, 154, 128, 129, 156, 130, 131, 132, 133, 160, 135, 162, 136, 137, 164, 138, 139, 166, 141, 142, 169, 143, 144, 171, 145, 146, 173, 147, 148, 175, 150, 177, 151, 152, 179, 153, 154, 181, 156, 157, 158, 159, 160, 161, 162, 189, 164, 191, 165, 166, 193, 167, 195, 169, 196, 170, 171, 172, 173, 200, 174, 175, 176, 177, 204, 178, 179, 206, 180, 181, 182, 183, 210, 184, 212, 186, 187, 214, 188, 189, 216, 190, 191, 218, 192, 193, 220, 194, 195, 197, 198, 225, 199, 227, 201, 202, 229, 203, 204, 231, 205, 206, 233, 207, 208, 235, 209, 237, 211, 212, 239, 213, 214, 241, 215, 216, 218, 245, 219, 220, 247, 221, 222, 249, 223, 251, 225, 252, 226, 227, 254, 228, 229, 256, 258, 232, 233, 260, 235, 262, 236, 237, 264, 238, 239, 266, 240, 241, 268, 242, 243, 270, 244, 245, 272, 246, 247, 274, 248, 249, 276, 250, 251, 278, 253, 254, 255, 256, 257, 258, 285, 259, 260, 287, 261, 262, 289, 263, 264, 291, 265, 266, 268, 269, 270, 297, 271, 272, 299, 273, 274, 301, 275, 276, 303, 277, 278, 305, 279, 307, 281, 308, 283, 310, 284, 285, 312, 286, 287, 314, 288, 289, 316, 290, 291, 318, 292, 320, 294, 295, 322, 297, 324, 298, 299, 326, 301, 328, 302, 330, 304, 305, 332, 306, 307, 334, 309, 310, 337, 312, 313, 314, 341, 315, 343, 317, 318, 345, 319, 320, 347, 321, 322, 349, 323, 325, 326, 353, 327, 328, 329, 330, 357, 332, 359, 333, 334, 361, 335, 363, 337, 364, 339, 366, 340, 341, 368, 342, 343, 370, 344, 372, 346, 347, 348, 349, 376, 350, 351, 378, 352, 353, 355, 382, 356, 357, 384, 358, 359, 386, 360, 361, 388, 362, 363, 390, 365, 367, 368, 369, 372, 373, 374, 375, 376, 377, 378, 379, 380, 382, 383, 384, 385, 386, 388, 389, 390];
L = [13, 2, 8, 14, 7, 18, 10, 18, 11, 16, 13, 1, 6, 6, 18, 6, 10, 3, 15, 14, 13, 17, 10, 5, 1, 14, 2, 11, 3, 16, 4, 12, 15, 3, 1, 3, 3, 3, 10, 5, 9, 2, 1, 5, 10, 4, 14, 5, 7, 8, 15, 7, 11, 6, 19, 19, 10, 19, 1, 17, 9, 5, 17, 4, 11, 15, 4, 9, 1, 3, 14, 11, 7, 15, 11, 8, 17, 11, 7, 10, 18, 6, 4, 11, 2, 1, 6, 5, 15, 3, 3, 7, 14, 12, 16, 5, 11, 5, 15, 11, 2, 1, 5, 4, 15, 5, 18, 1, 16, 16, 16, 3, 6, 14, 13, 5, 8, 5, 4, 14, 7, 11, 15, 13, 18, 3, 12, 16, 18, 10, 1, 6, 10, 13, 16, 10, 18, 11, 17, 5, 17, 11, 13, 8, 7, 6, 6, 19, 5, 9, 3, 1, 4, 9, 4, 5, 11, 16, 12, 13, 15, 11, 16, 15, 13, 10, 17, 16, 19, 9, 4, 3, 15, 16, 14, 2, 16, 8, 15, 8, 18, 8, 14, 15, 12, 1, 5, 12, 15, 7, 2, 2, 3, 2, 18, 7, 3, 3, 2, 6, 3, 9, 5, 10, 19, 1, 9, 7, 16, 15, 3, 11, 15, 17, 1, 17, 1, 17, 18, 17, 9, 11, 1, 1, 18, 1, 14, 8, 12, 11, 17, 16, 5, 14, 13, 12, 14, 2, 15, 11, 19, 14, 5, 10, 14, 1, 15, 6, 5, 10, 8, 16, 5, 8, 3, 13, 11, 1, 9, 5, 8, 16, 13, 3, 17, 16, 5, 16, 19, 3, 16, 7, 1, 5, 5, 10, 13, 15, 11, 3, 4, 18, 19, 4, 8, 7, 18, 18, 9, 12, 5, 2, 6, 16, 5, 7, 7, 7, 1, 5, 16, 14, 13, 12, 15, 10, 2, 1, 19, 15, 1, 9, 15, 4, 17, 11, 10, 5, 8, 14, 10, 4, 6, 18, 3, 11, 12, 5, 5, 4, 6, 11, 3, 12, 13, 8, 13, 12, 17, 12, 6, 6, 3, 19, 3, 18, 7, 10, 8, 15, 10, 14, 5, 1, 10, 2, 9, 3, 4, 4, 11, 1, 18, 3, 2, 14, 9, 9, 10, 13, 5, 9, 4, 13, 3, 12, 12, 12, 12, 10, 17, 19, 13, 14, 16, 6, 19, 2, 12, 10, 15, 15, 15, 10, 18, 12, 12, 10, 7, 12, 18, 8, 7, 15, 6, 2, 2, 5, 11, 13, 1, 2, 2, 9, 7, 18, 1, 10, 14, 12, 4, 6, 5, 9, 14, 18, 8, 6, 10, 6, 3, 1, 18, 19, 9, 3, 19, 15, 8, 10, 15, 12, 13, 4, 2, 18, 3, 14, 2, 11, 10, 2, 18, 18, 6, 6, 2, 12, 17, 3, 15, 4, 16, 4, 9, 4, 13, 3, 4, 1, 17, 10, 18, 9, 13, 5, 6, 6, 1, 6, 16, 2, 1, 15];
T = [7, 8, 6, 5, 7, 23, 5, 14, 16, 8, 9, 1, 9, 8, 16, 1, 10, 1, 12, 6, 8, 20, 15, 3, 4, 19, 1, 5, 4, 25, 4, 17, 20, 1, 1, 5, 2, 1, 7, 1, 9, 2, 4, 4, 11, 6, 10, 7, 4, 3, 16, 15, 12, 13, 8, 24, 16, 27, 2, 11, 10, 6, 13, 4, 12, 11, 1, 12, 6, 7, 13, 14, 7, 11, 15, 5, 18, 1, 1, 6, 19, 8, 4, 19, 8, 3, 5, 5, 12, 2, 7, 14, 17, 17, 9, 5, 4, 9, 8, 6, 1, 1, 3, 1, 11, 5, 23, 8, 13, 7, 21, 7, 4, 14, 1, 5, 19, 3, 10, 13, 12, 2, 11, 14, 15, 3, 7, 14, 16, 5, 6, 6, 5, 12, 12, 11, 21, 15, 23, 1, 15, 15, 14, 5, 11, 5, 7, 28, 8, 3, 2, 6, 9, 3, 1, 8, 15, 15, 10, 16, 16, 8, 21, 10, 24, 10, 20, 16, 19, 18, 1, 7, 9, 12, 13, 7, 17, 11, 9, 1, 22, 15, 16, 7, 6, 1, 12, 1, 14, 11, 3, 1, 1, 1, 14, 6, 5, 1, 1, 11, 8, 7, 5, 3, 15, 8, 14, 1, 18, 26, 7, 14, 11, 17, 1, 22, 5, 14, 17, 17, 19, 14, 2, 11, 12, 4, 1, 7, 10, 7, 20, 17, 8, 18, 16, 4, 13, 3, 22, 5, 19, 15, 4, 11, 20, 3, 15, 9, 7, 15, 6, 22, 8, 1, 1, 8, 13, 1, 11, 4, 10, 14, 15, 8, 12, 13, 1, 10, 20, 9, 14, 1, 1, 1, 8, 14, 10, 14, 9, 1, 8, 23, 18, 3, 4, 8, 14, 19, 4, 22, 5, 1, 2, 9, 12, 1, 6, 4, 1, 2, 20, 22, 8, 15, 13, 10, 1, 1, 16, 8, 1, 7, 20, 1, 13, 16, 8, 14, 10, 4, 7, 5, 8, 13, 8, 8, 13, 1, 3, 7, 4, 22, 1, 9, 10, 1, 8, 5, 14, 15, 1, 1, 2, 15, 2, 16, 1, 7, 5, 19, 5, 14, 5, 2, 18, 3, 14, 5, 1, 7, 1, 1, 13, 2, 1, 12, 5, 3, 17, 11, 7, 6, 1, 11, 1, 12, 6, 12, 4, 4, 19, 19, 13, 13, 16, 10, 24, 2, 7, 7, 16, 10, 19, 21, 19, 10, 13, 19, 10, 14, 11, 1, 17, 24, 8, 3, 2, 9, 5, 7, 1, 5, 2, 3, 13, 14, 8, 14, 14, 10, 4, 13, 11, 7, 9, 23, 9, 6, 6, 5, 1, 3, 22, 21, 6, 5, 17, 10, 7, 11, 15, 19, 14, 1, 1, 20, 4, 11, 7, 8, 11, 1, 16, 26, 1, 1, 8, 10, 15, 1, 18, 2, 22, 9, 2, 4, 5, 1, 10, 12, 7, 5, 23, 9, 12, 5, 6, 7, 2, 2, 9, 1, 1, 14];
Lower_Bound = [0, 7, 13, 18, 41, 46, 62, 70, 71, 80, 87, 88, 89, 101, 109, 129, 132, 136, 137, 142, 146, 214, 210, 206, 205, 206, 208, 8, 27, 20, 29, 55, 59, 63, 60, 70, 74, 77, 108, 95, 108, 116, 131, 151, 160, 162, 181, 171, 177, 190, 188, 200, 190, 209, 221, 35, 28, 38, 31, 46, 51, 52, 53, 72, 80, 88, 96, 101, 106, 108, 115, 132, 149, 154, 158, 167, 175, 176, 177, 178, 189, 212, 220, 48, 55, 49, 56, 60, 61, 58, 61, 71, 83, 85, 109, 113, 125, 122, 155, 141, 146, 185, 179, 173, 178, 179, 190, 183, 206, 207, 222, 81, 76, 77, 70, 78, 79, 76, 74, 83, 86, 87, 95, 131, 132, 128, 171, 187, 203, 224, 224, 200, 190, 221, 205, 222, 221, 230, 236, 92, 99, 105, 114, 113, 98, 82, 88, 89, 103, 102, 113, 116, 117, 118, 201, 195, 200, 201, 202, 207, 199, 206, 232, 229, 237, 243, 261, 117, 110, 121, 128, 127, 105, 117, 100, 117, 117, 119, 114, 118, 119, 126, 136, 156, 200, 192, 185, 181, 194, 216, 221, 236, 238, 258, 261, 131, 146, 155, 170, 132, 148, 140, 139, 131, 132, 131, 141, 155, 163, 133, 146, 147, 167, 176, 177, 178, 200, 201, 215, 225, 234, 235, 258, 156, 153, 161, 175, 171, 149, 168, 147, 145, 136, 157, 156, 160, 161, 178, 156, 171, 181, 182, 183, 191, 192, 212, 213, 229, 237, 244, 248, 160, 165, 173, 184, 176, 180, 167, 164, 157, 164, 163, 163, 162, 167, 181, 196, 181, 182, 183, 198, 198, 199, 206, 225, 230, 235, 237, 240, 244, 249, 202, 195, 194, 181, 180, 168, 171, 173, 177, 171, 182, 219, 207, 213, 188, 184, 203, 214, 217, 204, 214, 239, 241, 248, 264, 254, 243, 222, 203, 209, 196, 195, 185, 196, 182, 199, 178, 181, 183, 188, 195, 200, 192, 194, 197, 211, 219, 233, 238, 252, 248, 259, 266, 289, 238, 232, 238, 233, 230, 208, 202, 197, 207, 207, 205, 190, 203, 189, 190, 210, 214, 207, 268, 260, 259, 243, 244, 245, 255, 268, 286, 288, 244, 253, 239, 241, 245, 250, 219, 215, 214, 224, 216, 209, 204, 203, 194, 206, 211, 278, 272, 265, 263, 261, 252, 257, 256, 257, 271];
Upper_Bound = [1, 8, 14, 19, 42, 47, 63, 71, 72, 81, 88, 89, 90, 102, 110, 130, 133, 137, 138, 143, 147, 215, 211, 207, 206, 207, 209, 9, 28, 21, 30, 56, 60, 64, 61, 71, 75, 78, 109, 96, 109, 117, 132, 152, 161, 163, 182, 172, 178, 191, 189, 201, 191, 210, 222, 36, 29, 39, 32, 47, 52, 53, 54, 73, 81, 89, 97, 102, 107, 109, 116, 133, 150, 155, 159, 168, 176, 177, 178, 179, 190, 213, 221, 49, 56, 50, 57, 61, 62, 59, 62, 72, 84, 86, 110, 114, 126, 123, 156, 142, 147, 186, 180, 174, 179, 180, 191, 184, 207, 208, 223, 82, 77, 78, 71, 79, 80, 77, 75, 84, 87, 88, 96, 132, 133, 129, 172, 188, 204, 225, 225, 201, 191, 222, 206, 223, 222, 231, 237, 93, 100, 106, 115, 114, 99, 83, 89, 90, 104, 103, 114, 117, 118, 119, 202, 196, 201, 202, 203, 208, 200, 207, 233, 230, 238, 244, 262, 118, 111, 122, 129, 128, 106, 118, 101, 118, 118, 120, 115, 119, 120, 127, 137, 157, 201, 193, 186, 182, 195, 217, 222, 237, 239, 259, 262, 132, 147, 156, 171, 133, 149, 141, 140, 132, 133, 132, 142, 156, 164, 134, 147, 148, 168, 177, 178, 179, 201, 202, 216, 226, 235, 236, 259, 157, 154, 162, 176, 172, 150, 169, 148, 146, 137, 158, 157, 161, 162, 179, 157, 172, 182, 183, 184, 192, 193, 213, 214, 230, 238, 245, 249, 161, 166, 174, 185, 177, 181, 168, 165, 158, 165, 164, 164, 163, 168, 182, 197, 182, 183, 184, 199, 199, 200, 207, 226, 231, 236, 238, 241, 245, 250, 203, 196, 195, 182, 181, 169, 172, 174, 178, 172, 183, 220, 208, 214, 189, 185, 204, 215, 218, 205, 215, 240, 242, 249, 265, 255, 244, 223, 204, 210, 197, 196, 186, 197, 183, 200, 179, 182, 184, 189, 196, 201, 193, 195, 198, 212, 220, 234, 239, 253, 249, 260, 267, 290, 239, 233, 239, 234, 231, 209, 203, 198, 208, 208, 206, 191, 204, 190, 191, 211, 215, 208, 269, 261, 260, 244, 245, 246, 256, 269, 287, 289, 245, 254, 240, 242, 246, 251, 220, 216, 215, 225, 217, 210, 205, 204, 195, 207, 212, 279, 273, 266, 264, 262, 253, 258, 257, 258, 272];
Start = 1;
End = 390;
Time = 273;
